CuAg_interface CHO commensurate_1d relax
1.0
     23.1139064634  0.0000000000  0.0000000000
  0.0000000000     23.0598127947  0.0000000000
  0.0000000000  0.0000000000     22.0771595997
  Cu  Ag  C  O  H
  144  128  1  1  1
Selective dynamics
Direct
   0.0625000000   0.0000000000   0.0000000000   F F F
   0.0625000000   0.1111111111   0.0000000000   F F F
   0.0625000000   0.2222222222   0.0000000000   F F F
   0.0625000000   0.3333333333   0.0000000000   F F F
   0.0625000000   0.4444444444   0.0000000000   F F F
   0.0625000000   0.5555555556   0.0000000000   F F F
   0.0625000000   0.6666666667   0.0000000000   F F F
   0.0625000000   0.7777777778   0.0000000000   F F F
   0.0625000000   0.8888888889   0.0000000000   F F F
   0.1875000000   0.0555555556   0.0000000000   F F F
   0.1875000000   0.1666666667   0.0000000000   F F F
   0.1875000000   0.2777777778   0.0000000000   F F F
   0.1875000000   0.3888888889   0.0000000000   F F F
   0.1875000000   0.5000000000   0.0000000000   F F F
   0.1875000000   0.6111111111   0.0000000000   F F F
   0.1875000000   0.7222222222   0.0000000000   F F F
   0.1875000000   0.8333333333   0.0000000000   F F F
   0.1875000000   0.9444444444   0.0000000000   F F F
   0.3125000000   0.0000000000   0.0000000000   F F F
   0.3125000000   0.1111111111   0.0000000000   F F F
   0.3125000000   0.2222222222   0.0000000000   F F F
   0.3125000000   0.3333333333   0.0000000000   F F F
   0.3125000000   0.4444444444   0.0000000000   F F F
   0.3125000000   0.5555555556   0.0000000000   F F F
   0.3125000000   0.6666666667   0.0000000000   F F F
   0.3125000000   0.7777777778   0.0000000000   F F F
   0.3125000000   0.8888888889   0.0000000000   F F F
   0.4375000000   0.0555555556   0.0000000000   F F F
   0.4375000000   0.1666666667   0.0000000000   F F F
   0.4375000000   0.2777777778   0.0000000000   F F F
   0.4375000000   0.3888888889   0.0000000000   F F F
   0.4375000000   0.5000000000   0.0000000000   F F F
   0.4375000000   0.6111111111   0.0000000000   F F F
   0.4375000000   0.7222222222   0.0000000000   F F F
   0.4375000000   0.8333333333   0.0000000000   F F F
   0.4375000000   0.9444444444   0.0000000000   F F F
   0.1041666667   0.0370370370   0.1068549235   T T T
   0.1041666667   0.1481481481   0.1068549235   T T T
   0.1041666667   0.2592592593   0.1068549235   T T T
   0.1041666667   0.3703703704   0.1068549235   T T T
   0.1041666667   0.4814814815   0.1068549235   T T T
   0.1041666667   0.5925925926   0.1068549235   T T T
   0.1041666667   0.7037037037   0.1068549235   T T T
   0.1041666667   0.8148148148   0.1068549235   T T T
   0.1041666667   0.9259259259   0.1068549235   T T T
   0.2291666667   0.0925925926   0.1068549235   T T T
   0.2291666667   0.2037037037   0.1068549235   T T T
   0.2291666667   0.3148148148   0.1068549235   T T T
   0.2291666667   0.4259259259   0.1068549235   T T T
   0.2291666667   0.5370370370   0.1068549235   T T T
   0.2291666667   0.6481481481   0.1068549235   T T T
   0.2291666667   0.7592592593   0.1068549235   T T T
   0.2291666667   0.8703703704   0.1068549235   T T T
   0.2291666667   0.9814814815   0.1068549235   T T T
   0.3541666667   0.0370370370   0.1068549235   T T T
   0.3541666667   0.1481481481   0.1068549235   T T T
   0.3541666667   0.2592592593   0.1068549235   T T T
   0.3541666667   0.3703703704   0.1068549235   T T T
   0.3541666667   0.4814814815   0.1068549235   T T T
   0.3541666667   0.5925925926   0.1068549235   T T T
   0.3541666667   0.7037037037   0.1068549235   T T T
   0.3541666667   0.8148148148   0.1068549235   T T T
   0.3541666667   0.9259259259   0.1068549235   T T T
   0.4791666667   0.0925925926   0.1068549235   T T T
   0.4791666667   0.2037037037   0.1068549235   T T T
   0.4791666667   0.3148148148   0.1068549235   T T T
   0.4791666667   0.4259259259   0.1068549235   T T T
   0.4791666667   0.5370370370   0.1068549235   T T T
   0.4791666667   0.6481481481   0.1068549235   T T T
   0.4791666667   0.7592592593   0.1068549235   T T T
   0.4791666667   0.8703703704   0.1068549235   T T T
   0.4791666667   0.9814814815   0.1068549235   T T T
   0.1458333333   0.0740740741   0.2137098470   T T T
   0.1458333333   0.1851851852   0.2137098470   T T T
   0.1458333333   0.2962962963   0.2137098470   T T T
   0.1458333333   0.4074074074   0.2137098470   T T T
   0.1458333333   0.5185185185   0.2137098470   T T T
   0.1458333333   0.6296296296   0.2137098470   T T T
   0.1458333333   0.7407407407   0.2137098470   T T T
   0.1458333333   0.8518518519   0.2137098470   T T T
   0.1458333333   0.9629629630   0.2137098470   T T T
   0.2708333333   0.1296296296   0.2137098470   T T T
   0.2708333333   0.2407407407   0.2137098470   T T T
   0.2708333333   0.3518518519   0.2137098470   T T T
   0.2708333333   0.4629629630   0.2137098470   T T T
   0.2708333333   0.5740740741   0.2137098470   T T T
   0.2708333333   0.6851851852   0.2137098470   T T T
   0.2708333333   0.7962962963   0.2137098470   T T T
   0.2708333333   0.9074074074   0.2137098470   T T T
   0.2708333333   0.0185185185   0.2137098470   T T T
   0.3958333333   0.0740740741   0.2137098470   T T T
   0.3958333333   0.1851851852   0.2137098470   T T T
   0.3958333333   0.2962962963   0.2137098470   T T T
   0.3958333333   0.4074074074   0.2137098470   T T T
   0.3958333333   0.5185185185   0.2137098470   T T T
   0.3958333333   0.6296296296   0.2137098470   T T T
   0.3958333333   0.7407407407   0.2137098470   T T T
   0.3958333333   0.8518518519   0.2137098470   T T T
   0.3958333333   0.9629629630   0.2137098470   T T T
   0.5208333333   0.1296296296   0.2137098470   T T T
   0.5208333333   0.2407407407   0.2137098470   T T T
   0.5208333333   0.3518518519   0.2137098470   T T T
   0.5208333333   0.4629629630   0.2137098470   T T T
   0.5208333333   0.5740740741   0.2137098470   T T T
   0.5208333333   0.6851851852   0.2137098470   T T T
   0.5208333333   0.7962962963   0.2137098470   T T T
   0.5208333333   0.9074074074   0.2137098470   T T T
   0.5208333333   0.0185185185   0.2137098470   T T T
   0.0625000000   0.0000000000   0.3205647705   T T T
   0.0625000000   0.1111111111   0.3205647705   T T T
   0.0625000000   0.2222222222   0.3205647705   T T T
   0.0625000000   0.3333333333   0.3205647705   T T T
   0.0625000000   0.4444444444   0.3205647705   T T T
   0.0625000000   0.5555555556   0.3205647705   T T T
   0.0625000000   0.6666666667   0.3205647705   T T T
   0.0625000000   0.7777777778   0.3205647705   T T T
   0.0625000000   0.8888888889   0.3205647705   T T T
   0.1875000000   0.0555555556   0.3205647705   T T T
   0.1875000000   0.1666666667   0.3205647705   T T T
   0.1875000000   0.2777777778   0.3205647705   T T T
   0.1875000000   0.3888888889   0.3205647705   T T T
   0.1875000000   0.5000000000   0.3205647705   T T T
   0.1875000000   0.6111111111   0.3205647705   T T T
   0.1875000000   0.7222222222   0.3205647705   T T T
   0.1875000000   0.8333333333   0.3205647705   T T T
   0.1875000000   0.9444444444   0.3205647705   T T T
   0.3125000000   0.0000000000   0.3205647705   T T T
   0.3125000000   0.1111111111   0.3205647705   T T T
   0.3125000000   0.2222222222   0.3205647705   T T T
   0.3125000000   0.3333333333   0.3205647705   T T T
   0.3125000000   0.4444444444   0.3205647705   T T T
   0.3125000000   0.5555555556   0.3205647705   T T T
   0.3125000000   0.6666666667   0.3205647705   T T T
   0.3125000000   0.7777777778   0.3205647705   T T T
   0.3125000000   0.8888888889   0.3205647705   T T T
   0.4375000000   0.0555555556   0.3205647705   T T T
   0.4375000000   0.1666666667   0.3205647705   T T T
   0.4375000000   0.2777777778   0.3205647705   T T T
   0.4375000000   0.3888888889   0.3205647705   T T T
   0.4375000000   0.5000000000   0.3205647705   T T T
   0.4375000000   0.6111111111   0.3205647705   T T T
   0.4375000000   0.7222222222   0.3205647705   T T T
   0.4375000000   0.8333333333   0.3205647705   T T T
   0.4375000000   0.9444444444   0.3205647705   T T T
   0.5625000000   0.0000000000   0.0000000000   F F F
   0.5625000000   0.1250000000   0.0000000000   F F F
   0.5625000000   0.2500000000   0.0000000000   F F F
   0.5625000000   0.3750000000   0.0000000000   F F F
   0.5625000000   0.5000000000   0.0000000000   F F F
   0.5625000000   0.6250000000   0.0000000000   F F F
   0.5625000000   0.7500000000   0.0000000000   F F F
   0.5625000000   0.8750000000   0.0000000000   F F F
   0.6875000000   0.0625000000   0.0000000000   F F F
   0.6875000000   0.1875000000   0.0000000000   F F F
   0.6875000000   0.3125000000   0.0000000000   F F F
   0.6875000000   0.4375000000   0.0000000000   F F F
   0.6875000000   0.5625000000   0.0000000000   F F F
   0.6875000000   0.6875000000   0.0000000000   F F F
   0.6875000000   0.8125000000   0.0000000000   F F F
   0.6875000000   0.9375000000   0.0000000000   F F F
   0.8125000000   0.0000000000   0.0000000000   F F F
   0.8125000000   0.1250000000   0.0000000000   F F F
   0.8125000000   0.2500000000   0.0000000000   F F F
   0.8125000000   0.3750000000   0.0000000000   F F F
   0.8125000000   0.5000000000   0.0000000000   F F F
   0.8125000000   0.6250000000   0.0000000000   F F F
   0.8125000000   0.7500000000   0.0000000000   F F F
   0.8125000000   0.8750000000   0.0000000000   F F F
   0.9375000000   0.0625000000   0.0000000000   F F F
   0.9375000000   0.1875000000   0.0000000000   F F F
   0.9375000000   0.3125000000   0.0000000000   F F F
   0.9375000000   0.4375000000   0.0000000000   F F F
   0.9375000000   0.5625000000   0.0000000000   F F F
   0.9375000000   0.6875000000   0.0000000000   F F F
   0.9375000000   0.8125000000   0.0000000000   F F F
   0.9375000000   0.9375000000   0.0000000000   F F F
   0.6041666667   0.0416666667   0.1068549235   T T T
   0.6041666667   0.1666666667   0.1068549235   T T T
   0.6041666667   0.2916666667   0.1068549235   T T T
   0.6041666667   0.4166666667   0.1068549235   T T T
   0.6041666667   0.5416666667   0.1068549235   T T T
   0.6041666667   0.6666666667   0.1068549235   T T T
   0.6041666667   0.7916666667   0.1068549235   T T T
   0.6041666667   0.9166666667   0.1068549235   T T T
   0.7291666667   0.1041666667   0.1068549235   T T T
   0.7291666667   0.2291666667   0.1068549235   T T T
   0.7291666667   0.3541666667   0.1068549235   T T T
   0.7291666667   0.4791666667   0.1068549235   T T T
   0.7291666667   0.6041666667   0.1068549235   T T T
   0.7291666667   0.7291666667   0.1068549235   T T T
   0.7291666667   0.8541666667   0.1068549235   T T T
   0.7291666667   0.9791666667   0.1068549235   T T T
   0.8541666667   0.0416666667   0.1068549235   T T T
   0.8541666667   0.1666666667   0.1068549235   T T T
   0.8541666667   0.2916666667   0.1068549235   T T T
   0.8541666667   0.4166666667   0.1068549235   T T T
   0.8541666667   0.5416666667   0.1068549235   T T T
   0.8541666667   0.6666666667   0.1068549235   T T T
   0.8541666667   0.7916666667   0.1068549235   T T T
   0.8541666667   0.9166666667   0.1068549235   T T T
   0.9791666667   0.1041666667   0.1068549235   T T T
   0.9791666667   0.2291666667   0.1068549235   T T T
   0.9791666667   0.3541666667   0.1068549235   T T T
   0.9791666667   0.4791666667   0.1068549235   T T T
   0.9791666667   0.6041666667   0.1068549235   T T T
   0.9791666667   0.7291666667   0.1068549235   T T T
   0.9791666667   0.8541666667   0.1068549235   T T T
   0.9791666667   0.9791666667   0.1068549235   T T T
   0.6458333333   0.0833333333   0.2137098470   T T T
   0.6458333333   0.2083333333   0.2137098470   T T T
   0.6458333333   0.3333333333   0.2137098470   T T T
   0.6458333333   0.4583333333   0.2137098470   T T T
   0.6458333333   0.5833333333   0.2137098470   T T T
   0.6458333333   0.7083333333   0.2137098470   T T T
   0.6458333333   0.8333333333   0.2137098470   T T T
   0.6458333333   0.9583333333   0.2137098470   T T T
   0.7708333333   0.1458333333   0.2137098470   T T T
   0.7708333333   0.2708333333   0.2137098470   T T T
   0.7708333333   0.3958333333   0.2137098470   T T T
   0.7708333333   0.5208333333   0.2137098470   T T T
   0.7708333333   0.6458333333   0.2137098470   T T T
   0.7708333333   0.7708333333   0.2137098470   T T T
   0.7708333333   0.8958333333   0.2137098470   T T T
   0.7708333333   0.0208333333   0.2137098470   T T T
   0.8958333333   0.0833333333   0.2137098470   T T T
   0.8958333333   0.2083333333   0.2137098470   T T T
   0.8958333333   0.3333333333   0.2137098470   T T T
   0.8958333333   0.4583333333   0.2137098470   T T T
   0.8958333333   0.5833333333   0.2137098470   T T T
   0.8958333333   0.7083333333   0.2137098470   T T T
   0.8958333333   0.8333333333   0.2137098470   T T T
   0.8958333333   0.9583333333   0.2137098470   T T T
   0.0208333333   0.1458333333   0.2137098470   T T T
   0.0208333333   0.2708333333   0.2137098470   T T T
   0.0208333333   0.3958333333   0.2137098470   T T T
   0.0208333333   0.5208333333   0.2137098470   T T T
   0.0208333333   0.6458333333   0.2137098470   T T T
   0.0208333333   0.7708333333   0.2137098470   T T T
   0.0208333333   0.8958333333   0.2137098470   T T T
   0.0208333333   0.0208333333   0.2137098470   T T T
   0.5625000000   0.0000000000   0.3205647705   T T T
   0.5625000000   0.1250000000   0.3205647705   T T T
   0.5625000000   0.2500000000   0.3205647705   T T T
   0.5625000000   0.3750000000   0.3205647705   T T T
   0.5625000000   0.5000000000   0.3205647705   T T T
   0.5625000000   0.6250000000   0.3205647705   T T T
   0.5625000000   0.7500000000   0.3205647705   T T T
   0.5625000000   0.8750000000   0.3205647705   T T T
   0.6875000000   0.0625000000   0.3205647705   T T T
   0.6875000000   0.1875000000   0.3205647705   T T T
   0.6875000000   0.3125000000   0.3205647705   T T T
   0.6875000000   0.4375000000   0.3205647705   T T T
   0.6875000000   0.5625000000   0.3205647705   T T T
   0.6875000000   0.6875000000   0.3205647705   T T T
   0.6875000000   0.8125000000   0.3205647705   T T T
   0.6875000000   0.9375000000   0.3205647705   T T T
   0.8125000000   0.0000000000   0.3205647705   T T T
   0.8125000000   0.1250000000   0.3205647705   T T T
   0.8125000000   0.2500000000   0.3205647705   T T T
   0.8125000000   0.3750000000   0.3205647705   T T T
   0.8125000000   0.5000000000   0.3205647705   T T T
   0.8125000000   0.6250000000   0.3205647705   T T T
   0.8125000000   0.7500000000   0.3205647705   T T T
   0.8125000000   0.8750000000   0.3205647705   T T T
   0.9375000000   0.0625000000   0.3205647705   T T T
   0.9375000000   0.1875000000   0.3205647705   T T T
   0.9375000000   0.3125000000   0.3205647705   T T T
   0.9375000000   0.4375000000   0.3205647705   T T T
   0.9375000000   0.5625000000   0.3205647705   T T T
   0.9375000000   0.6875000000   0.3205647705   T T T
   0.9375000000   0.8125000000   0.3205647705   T T T
   0.9375000000   0.9375000000   0.3205647705   T T T
   0.5000000000   0.5000000000   0.3885082934   T T T
   0.5473160385   0.5000000000   0.4060226238   T T T
   0.4777696198   0.5385944709   0.4049657245   T T T
