ISPIN = 2
PREC = Accurate
ENCUT = 400
EDIFF = 1E-06
NELM = 120
ALGO = Normal
GGA = PE
IVDW = 11
LASPH = .TRUE.
IBRION = -1
NSW = 0
ISIF = 2
ISMEAR = 0
SIGMA = 0.05
LREAL = Auto
ISYM = 0
ICHARG = 0
LMAXMIX = 4
LWAVE = .TRUE.
LCHARG = .TRUE.
LDIPOL = .TRUE.
IDIPOL = 3
