Cu Ag C  O 
 1.0000000000000000
    23.1139064634258702    0.0000000000000000    0.0000000000000000
     4.3338574618923502    7.5064613167590490    0.0000000000000000
     0.0000000000000000    0.0000000000000000   22.0771595997264356
 Cu  Ag  C   O  
  48  48   2   2
Selective dynamics
Direct
  0.0000000000000000  0.0000000000000000  0.0000000000000000   F   F   F
  0.1250000000000000  0.0000000000000000  0.0000000000000000   F   F   F
  0.2500000000000000  0.0000000000000000  0.0000000000000000   F   F   F
  0.3749999999999999  0.0000000000000000  0.0000000000000000   F   F   F
  0.0000000000000000  0.3333333333333333  0.0000000000000000   F   F   F
  0.1250000000000000  0.3333333333333333  0.0000000000000000   F   F   F
  0.2500000000000000  0.3333333333333333  0.0000000000000000   F   F   F
  0.3749999999999999  0.3333333333333333  0.0000000000000000   F   F   F
  0.0000000000000000  0.6666666666666666  0.0000000000000000   F   F   F
  0.1250000000000000  0.6666666666666666  0.0000000000000000   F   F   F
  0.2500000000000000  0.6666666666666666  0.0000000000000000   F   F   F
  0.3749999999999999  0.6666666666666666  0.0000000000000000   F   F   F
  0.0416666666666667  0.1111111111111111  0.1068549234901596   T   T   T
  0.1666666666666667  0.1111111111111111  0.1068549234901596   T   T   T
  0.2916666666666667  0.1111111111111111  0.1068549234901596   T   T   T
  0.4166666666666667  0.1111111111111111  0.1068549234901596   T   T   T
  0.0416666666666667  0.4444444444444444  0.1068549234901596   T   T   T
  0.1666666666666667  0.4444444444444444  0.1068549234901596   T   T   T
  0.2916666666666666  0.4444444444444444  0.1068549234901596   T   T   T
  0.4166666666666667  0.4444444444444444  0.1068549234901596   T   T   T
  0.0416666666666667  0.7777777777777778  0.1068549234901596   T   T   T
  0.1666666666666667  0.7777777777777778  0.1068549234901596   T   T   T
  0.2916666666666667  0.7777777777777778  0.1068549234901596   T   T   T
  0.4166666666666667  0.7777777777777778  0.1068549234901596   T   T   T
 -0.0416666666666667  0.2222222222222222  0.2137098469803193   T   T   T
  0.0833333333333333  0.2222222222222222  0.2137098469803193   T   T   T
  0.2083333333333333  0.2222222222222222  0.2137098469803193   T   T   T
  0.3333333333333333  0.2222222222222222  0.2137098469803193   T   T   T
 -0.0416666666666667  0.5555555555555555  0.2137098469803193   T   T   T
  0.0833333333333333  0.5555555555555555  0.2137098469803193   T   T   T
  0.2083333333333333  0.5555555555555555  0.2137098469803193   T   T   T
  0.3333333333333333  0.5555555555555555  0.2137098469803193   T   T   T
 -0.0416666666666667  0.8888888888888887  0.2137098469803193   T   T   T
  0.0833333333333333  0.8888888888888887  0.2137098469803193   T   T   T
  0.2083333333333333  0.8888888888888887  0.2137098469803193   T   T   T
  0.3333333333333334  0.8888888888888887  0.2137098469803193   T   T   T
  0.0000000000000000  0.0000000000000000  0.3205647704704789   T   T   T
  0.1250000000000000  0.0000000000000000  0.3205647704704789   T   T   T
  0.2500000000000000  0.0000000000000000  0.3205647704704789   T   T   T
  0.3749999999999999  0.0000000000000000  0.3205647704704789   T   T   T
  0.0000000000000000  0.3333333333333333  0.3205647704704789   T   T   T
  0.1250000000000000  0.3333333333333333  0.3205647704704789   T   T   T
  0.2500000000000000  0.3333333333333333  0.3205647704704789   T   T   T
  0.3749999999999999  0.3333333333333333  0.3205647704704789   T   T   T
  0.0000000000000000  0.6666666666666666  0.3205647704704789   T   T   T
  0.1250000000000000  0.6666666666666666  0.3205647704704789   T   T   T
  0.2500000000000000  0.6666666666666666  0.3205647704704789   T   T   T
  0.3749999999999999  0.6666666666666666  0.3205647704704789   T   T   T
  0.5000000000000000  0.0000000000000000  0.0000000000000000   F   F   F
  0.6250000000000000  0.0000000000000000  0.0000000000000000   F   F   F
  0.7499999999999999  0.0000000000000000  0.0000000000000000   F   F   F
  0.8750000000000000  0.0000000000000000  0.0000000000000000   F   F   F
  0.5000000000000000  0.3333333333333333  0.0000000000000000   F   F   F
  0.6250000000000000  0.3333333333333333  0.0000000000000000   F   F   F
  0.7500000000000001  0.3333333333333333  0.0000000000000000   F   F   F
  0.8750000000000000  0.3333333333333333  0.0000000000000000   F   F   F
  0.5000000000000000  0.6666666666666666  0.0000000000000000   F   F   F
  0.6250000000000000  0.6666666666666666  0.0000000000000000   F   F   F
  0.7499999999999999  0.6666666666666666  0.0000000000000000   F   F   F
  0.8750000000000000  0.6666666666666666  0.0000000000000000   F   F   F
  0.5416666666666667  0.1111111111111111  0.1068549234901596   T   T   T
  0.6666666666666666  0.1111111111111111  0.1068549234901596   T   T   T
  0.7916666666666667  0.1111111111111111  0.1068549234901596   T   T   T
  0.9166666666666666  0.1111111111111111  0.1068549234901596   T   T   T
  0.5416666666666666  0.4444444444444444  0.1068549234901596   T   T   T
  0.6666666666666666  0.4444444444444444  0.1068549234901596   T   T   T
  0.7916666666666667  0.4444444444444444  0.1068549234901596   T   T   T
  0.9166666666666667  0.4444444444444444  0.1068549234901596   T   T   T
  0.5416666666666666  0.7777777777777778  0.1068549234901596   T   T   T
  0.6666666666666666  0.7777777777777778  0.1068549234901596   T   T   T
  0.7916666666666665  0.7777777777777778  0.1068549234901596   T   T   T
  0.9166666666666667  0.7777777777777778  0.1068549234901596   T   T   T
  0.4583333333333334  0.2222222222222222  0.2137098469803193   T   T   T
  0.5833333333333334  0.2222222222222222  0.2137098469803193   T   T   T
  0.7083333333333333  0.2222222222222222  0.2137098469803193   T   T   T
  0.8333333333333334  0.2222222222222222  0.2137098469803193   T   T   T
  0.4583333333333333  0.5555555555555555  0.2137098469803193   T   T   T
  0.5833333333333334  0.5555555555555555  0.2137098469803193   T   T   T
  0.7083333333333333  0.5555555555555555  0.2137098469803193   T   T   T
  0.8333333333333331  0.5555555555555555  0.2137098469803193   T   T   T
  0.4583333333333334  0.8888888888888887  0.2137098469803193   T   T   T
  0.5833333333333333  0.8888888888888887  0.2137098469803193   T   T   T
  0.7083333333333333  0.8888888888888887  0.2137098469803193   T   T   T
  0.8333333333333334  0.8888888888888887  0.2137098469803193   T   T   T
  0.5000000000000000  0.0000000000000000  0.3205647704704789   T   T   T
  0.6250000000000000  0.0000000000000000  0.3205647704704789   T   T   T
  0.7499999999999999  0.0000000000000000  0.3205647704704789   T   T   T
  0.8750000000000000  0.0000000000000000  0.3205647704704789   T   T   T
  0.5000000000000000  0.3333333333333333  0.3205647704704789   T   T   T
  0.6250000000000000  0.3333333333333333  0.3205647704704789   T   T   T
  0.7500000000000001  0.3333333333333333  0.3205647704704789   T   T   T
  0.8750000000000000  0.3333333333333333  0.3205647704704789   T   T   T
  0.5000000000000000  0.6666666666666666  0.3205647704704789   T   T   T
  0.6250000000000000  0.6666666666666666  0.3205647704704789   T   T   T
  0.7499999999999999  0.6666666666666666  0.3205647704704789   T   T   T
  0.8750000000000000  0.6666666666666666  0.3205647704704789   T   T   T
  0.4583333333333333  0.5555555555555555  0.3794491570297042   T   T   T
  0.4166666666666667  0.4444444444444445  0.3794491570297042   T   T   T
  0.4583333333333333  0.5555555555555555  0.4319921481133204   T   T   T
  0.4166666666666667  0.4444444444444445  0.4319921481133204   T   T   T
