Cu Au C  O  H 
 1.0000000000000000
    23.0686516294299295    0.0000000000000000    0.0000000000000000
     4.3253721805181122    7.4917643783023511    0.0000000000000000
     0.0000000000000000    0.0000000000000000   22.0633031932658810
 Cu  Au  C   O   H  
  48  48   1   1   2
Selective dynamics
Direct
  0.0000000000000000  0.0000000000000000  0.0000000000000000   F   F   F
  0.1250000000000000  0.0000000000000000  0.0000000000000000   F   F   F
  0.2500000000000000  0.0000000000000000  0.0000000000000000   F   F   F
  0.3750000000000000  0.0000000000000000  0.0000000000000000   F   F   F
  0.0000000000000000  0.3333333333333333  0.0000000000000000   F   F   F
  0.1250000000000000  0.3333333333333333  0.0000000000000000   F   F   F
  0.2500000000000000  0.3333333333333333  0.0000000000000000   F   F   F
  0.3750000000000000  0.3333333333333333  0.0000000000000000   F   F   F
  0.0000000000000000  0.6666666666666666  0.0000000000000000   F   F   F
  0.1250000000000000  0.6666666666666666  0.0000000000000000   F   F   F
  0.2500000000000000  0.6666666666666666  0.0000000000000000   F   F   F
  0.3750000000000000  0.6666666666666666  0.0000000000000000   F   F   F
  0.0416666666666667  0.1111111111111111  0.1067126883554730   T   T   T
  0.1666666666666666  0.1111111111111111  0.1067126883554730   T   T   T
  0.2916666666666667  0.1111111111111111  0.1067126883554730   T   T   T
  0.4166666666666667  0.1111111111111111  0.1067126883554730   T   T   T
  0.0416666666666667  0.4444444444444444  0.1067126883554730   T   T   T
  0.1666666666666667  0.4444444444444444  0.1067126883554730   T   T   T
  0.2916666666666667  0.4444444444444444  0.1067126883554730   T   T   T
  0.4166666666666667  0.4444444444444444  0.1067126883554730   T   T   T
  0.0416666666666667  0.7777777777777777  0.1067126883554730   T   T   T
  0.1666666666666667  0.7777777777777777  0.1067126883554730   T   T   T
  0.2916666666666667  0.7777777777777777  0.1067126883554730   T   T   T
  0.4166666666666667  0.7777777777777777  0.1067126883554730   T   T   T
 -0.0416666666666667  0.2222222222222222  0.2134253767109460   T   T   T
  0.0833333333333333  0.2222222222222222  0.2134253767109460   T   T   T
  0.2083333333333333  0.2222222222222222  0.2134253767109460   T   T   T
  0.3333333333333333  0.2222222222222222  0.2134253767109460   T   T   T
 -0.0416666666666667  0.5555555555555555  0.2134253767109460   T   T   T
  0.0833333333333333  0.5555555555555555  0.2134253767109460   T   T   T
  0.2083333333333333  0.5555555555555555  0.2134253767109460   T   T   T
  0.3333333333333333  0.5555555555555555  0.2134253767109460   T   T   T
 -0.0416666666666667  0.8888888888888887  0.2134253767109460   T   T   T
  0.0833333333333333  0.8888888888888887  0.2134253767109460   T   T   T
  0.2083333333333334  0.8888888888888887  0.2134253767109460   T   T   T
  0.3333333333333333  0.8888888888888887  0.2134253767109460   T   T   T
  0.0000000000000000  0.0000000000000000  0.3201380650664190   T   T   T
  0.1250000000000000  0.0000000000000000  0.3201380650664190   T   T   T
  0.2500000000000000  0.0000000000000000  0.3201380650664190   T   T   T
  0.3750000000000000  0.0000000000000000  0.3201380650664190   T   T   T
  0.0000000000000000  0.3333333333333333  0.3201380650664190   T   T   T
  0.1250000000000000  0.3333333333333333  0.3201380650664190   T   T   T
  0.2500000000000000  0.3333333333333333  0.3201380650664190   T   T   T
  0.3750000000000000  0.3333333333333333  0.3201380650664190   T   T   T
  0.0000000000000000  0.6666666666666666  0.3201380650664190   T   T   T
  0.1250000000000000  0.6666666666666666  0.3201380650664190   T   T   T
  0.2500000000000000  0.6666666666666666  0.3201380650664190   T   T   T
  0.3750000000000000  0.6666666666666666  0.3201380650664190   T   T   T
  0.4999999999999999  0.0000000000000000  0.0000000000000000   F   F   F
  0.6249999999999999  0.0000000000000000  0.0000000000000000   F   F   F
  0.7500000000000000  0.0000000000000000  0.0000000000000000   F   F   F
  0.8750000000000000  0.0000000000000000  0.0000000000000000   F   F   F
  0.4999999999999999  0.3333333333333333  0.0000000000000000   F   F   F
  0.6250000000000000  0.3333333333333333  0.0000000000000000   F   F   F
  0.7499999999999999  0.3333333333333333  0.0000000000000000   F   F   F
  0.8749999999999998  0.3333333333333333  0.0000000000000000   F   F   F
  0.4999999999999999  0.6666666666666666  0.0000000000000000   F   F   F
  0.6250000000000001  0.6666666666666666  0.0000000000000000   F   F   F
  0.7500000000000000  0.6666666666666666  0.0000000000000000   F   F   F
  0.8750000000000000  0.6666666666666666  0.0000000000000000   F   F   F
  0.5416666666666666  0.1111111111111111  0.1067126883554730   T   T   T
  0.6666666666666666  0.1111111111111111  0.1067126883554730   T   T   T
  0.7916666666666666  0.1111111111111111  0.1067126883554730   T   T   T
  0.9166666666666666  0.1111111111111111  0.1067126883554730   T   T   T
  0.5416666666666665  0.4444444444444444  0.1067126883554730   T   T   T
  0.6666666666666666  0.4444444444444444  0.1067126883554730   T   T   T
  0.7916666666666666  0.4444444444444444  0.1067126883554730   T   T   T
  0.9166666666666666  0.4444444444444444  0.1067126883554730   T   T   T
  0.5416666666666666  0.7777777777777777  0.1067126883554730   T   T   T
  0.6666666666666666  0.7777777777777777  0.1067126883554730   T   T   T
  0.7916666666666666  0.7777777777777777  0.1067126883554730   T   T   T
  0.9166666666666667  0.7777777777777777  0.1067126883554730   T   T   T
  0.4583333333333333  0.2222222222222222  0.2134253767109460   T   T   T
  0.5833333333333333  0.2222222222222222  0.2134253767109460   T   T   T
  0.7083333333333335  0.2222222222222222  0.2134253767109460   T   T   T
  0.8333333333333333  0.2222222222222222  0.2134253767109460   T   T   T
  0.4583333333333333  0.5555555555555555  0.2134253767109460   T   T   T
  0.5833333333333334  0.5555555555555555  0.2134253767109460   T   T   T
  0.7083333333333333  0.5555555555555555  0.2134253767109460   T   T   T
  0.8333333333333333  0.5555555555555555  0.2134253767109460   T   T   T
  0.4583333333333333  0.8888888888888887  0.2134253767109460   T   T   T
  0.5833333333333334  0.8888888888888887  0.2134253767109460   T   T   T
  0.7083333333333333  0.8888888888888887  0.2134253767109460   T   T   T
  0.8333333333333333  0.8888888888888887  0.2134253767109460   T   T   T
  0.4999999999999999  0.0000000000000000  0.3201380650664190   T   T   T
  0.6249999999999999  0.0000000000000000  0.3201380650664190   T   T   T
  0.7500000000000000  0.0000000000000000  0.3201380650664190   T   T   T
  0.8750000000000000  0.0000000000000000  0.3201380650664190   T   T   T
  0.4999999999999999  0.3333333333333333  0.3201380650664190   T   T   T
  0.6250000000000000  0.3333333333333333  0.3201380650664190   T   T   T
  0.7499999999999999  0.3333333333333333  0.3201380650664190   T   T   T
  0.8749999999999998  0.3333333333333333  0.3201380650664190   T   T   T
  0.4999999999999999  0.6666666666666666  0.3201380650664190   T   T   T
  0.6250000000000001  0.6666666666666666  0.3201380650664190   T   T   T
  0.7500000000000000  0.6666666666666666  0.3201380650664190   T   T   T
  0.8750000000000000  0.6666666666666666  0.3201380650664190   T   T   T
  0.3750000000000000  0.6666666666666666  0.4039877037082273   T   T   T
  0.4224004353280855  0.6666666666666666  0.4215379296793484   T   T   T
  0.3304599357692989  0.7854401712818694  0.4204788643190222   T   T   T
  0.4224004353280855  0.6666666666666666  0.4655023348050534   T   T   T
