ISPIN = 2
PREC = Accurate
ENCUT = 400
EDIFF = 1E-05
EDIFFG = -0.05
NELM = 120
ALGO = Normal
GGA = PE
IVDW = 11
LASPH = .TRUE.
IBRION = 3
NSW = 500
ISIF = 2
ISMEAR = 1
SIGMA = 0.2
LREAL = Auto
ISYM = 0
ICHARG = 2
LMAXMIX = 4
LWAVE = .FALSE.
LCHARG = .FALSE.
LDIPOL = .TRUE.
IDIPOL = 3
POTIM = 0
IOPT = 1
ICHAIN = 0
SPRING = -5
LCLIMB = .TRUE.
IMAGES = 6
