Cu C  O  H 
 1.0000000000000000
    10.2247640559574791    0.0000000000000000    0.0000000000000000
     3.8342865209840546    6.6411790651208911    0.0000000000000000
     0.0000000000000000    0.0000000000000000   21.2613636693614936
 Cu  C   O   H  
  48   1   1   2
Selective dynamics
Direct
  0.0000000000000000  0.0000000000000000  0.0000000000000000   F   F   F
  0.2500000000000000  0.0000000000000000  0.0000000000000000   F   F   F
  0.5000000000000000  0.0000000000000000  0.0000000000000000   F   F   F
  0.7500000000000000  0.0000000000000000  0.0000000000000000   F   F   F
  0.0000000000000000  0.3333333333333333  0.0000000000000000   F   F   F
  0.2500000000000000  0.3333333333333333  0.0000000000000000   F   F   F
  0.5000000000000000  0.3333333333333333  0.0000000000000000   F   F   F
  0.7500000000000000  0.3333333333333333  0.0000000000000000   F   F   F
  0.0000000000000000  0.6666666666666666  0.0000000000000000   F   F   F
  0.2500000000000000  0.6666666666666666  0.0000000000000000   F   F   F
  0.5000000000000000  0.6666666666666666  0.0000000000000000   F   F   F
  0.7500000000000000  0.6666666666666666  0.0000000000000000   F   F   F
  0.0833333333333333  0.1111111111111111  0.0981649745320958   F   F   F
  0.3333333333333334  0.1111111111111111  0.0981649745320958   F   F   F
  0.5833333333333334  0.1111111111111111  0.0981649745320958   F   F   F
  0.8333333333333334  0.1111111111111111  0.0981649745320958   F   F   F
  0.0833333333333334  0.4444444444444444  0.0981649745320958   F   F   F
  0.3333333333333334  0.4444444444444444  0.0981649745320958   F   F   F
  0.5833333333333334  0.4444444444444444  0.0981649745320958   F   F   F
  0.8333333333333334  0.4444444444444444  0.0981649745320958   F   F   F
  0.0833333333333333  0.7777777777777778  0.0981649745320958   F   F   F
  0.3333333333333333  0.7777777777777778  0.0981649745320958   F   F   F
  0.5833333333333333  0.7777777777777778  0.0981649745320958   F   F   F
  0.8333333333333334  0.7777777777777778  0.0981649745320958   F   F   F
 -0.0833333333333333  0.2222222222222222  0.1963299490641916   T   T   T
  0.1666666666666667  0.2222222222222222  0.1963299490641916   T   T   T
  0.4166666666666667  0.2222222222222222  0.1963299490641916   T   T   T
  0.6666666666666667  0.2222222222222222  0.1963299490641916   T   T   T
 -0.0833333333333333  0.5555555555555555  0.1963299490641916   T   T   T
  0.1666666666666667  0.5555555555555555  0.1963299490641916   T   T   T
  0.4166666666666667  0.5555555555555555  0.1963299490641916   T   T   T
  0.6666666666666667  0.5555555555555555  0.1963299490641916   T   T   T
 -0.0833333333333333  0.8888888888888887  0.1963299490641916   T   T   T
  0.1666666666666667  0.8888888888888887  0.1963299490641916   T   T   T
  0.4166666666666667  0.8888888888888887  0.1963299490641916   T   T   T
  0.6666666666666667  0.8888888888888887  0.1963299490641916   T   T   T
  0.0000000000000000  0.0000000000000000  0.2944949235962873   T   T   T
  0.2500000000000000  0.0000000000000000  0.2944949235962873   T   T   T
  0.5000000000000000  0.0000000000000000  0.2944949235962873   T   T   T
  0.7500000000000000  0.0000000000000000  0.2944949235962873   T   T   T
  0.0000000000000000  0.3333333333333333  0.2944949235962873   T   T   T
  0.2500000000000000  0.3333333333333333  0.2944949235962873   T   T   T
  0.5000000000000000  0.3333333333333333  0.2944949235962873   T   T   T
  0.7500000000000000  0.3333333333333333  0.2944949235962873   T   T   T
  0.0000000000000000  0.6666666666666666  0.2944949235962873   T   T   T
  0.2500000000000000  0.6666666666666666  0.2944949235962873   T   T   T
  0.5000000000000000  0.6666666666666666  0.2944949235962873   T   T   T
  0.7500000000000000  0.6666666666666666  0.2944949235962873   T   T   T
  0.5000000000000000  0.3333333333333333  0.3815072163527452   T   T   T
  0.6069427249061867  0.3333333333333333  0.3997194045610288   T   T   T
  0.3995107153898763  0.4673190461468317  0.3986203932036324   T   T   T
  0.6069427249061867  0.3333333333333333  0.4453420661684689   T   T   T
