Automatic mesh
0
Monkhorst-Pack
5 3 1
0 0 0
