SYSTEM = CuAu_interface_CO_relax
ISPIN = 2
PREC = Accurate
ENCUT = 400
EDIFF = 1e-05
EDIFFG = -0.02
NELM = 120
ALGO = Normal
GGA = PE
IVDW = 11
LASPH = .TRUE.
IBRION = 2
NSW = 300
ISIF = 2
ISMEAR = 1
SIGMA = 0.2
LREAL = Auto
ISYM = 0
ICHARG = 2
LMAXMIX = 4
LWAVE = .FALSE.
LCHARG = .FALSE.
LDIPOL = .TRUE.
IDIPOL = 3
